certificates/rado_a13_c165_N33.cnf
c Rad2 upper bound instance: x1 + 13*x2 - x3 = 165, interval [1,33]
p cnf 33 166
1 5 13 0
-1 -5 -13 0
1 14 18 0
-1 -14 -18 0
1 15 31 0
-1 -15 -31 0
2 6 13 0
-2 -6 -13 0
2 14 19 0
-2 -14 -19 0
2 15 32 0
-2 -15 -32 0
3 7 13 0
-3 -7 -13 0
3 14 20 0
-3 -14 -20 0
3 15 33 0
-3 -15 -33 0
4 8 13 0
-4 -8 -13 0
4 14 21 0
-4 -14 -21 0
5 9 13 0
-5 -9 -13 0
5 14 22 0
-5 -14 -22 0
6 10 13 0
-6 -10 -13 0
6 14 23 0
-6 -14 -23 0
7 11 13 0
-7 -11 -13 0
7 14 24 0
-7 -14 -24 0
8 12 13 0
-8 -12 -13 0
8 14 25 0
-8 -14 -25 0
9 13 0
-9 -13 0
9 14 26 0
-9 -14 -26 0
1 10 12 0
-1 -10 -12 0
10 13 14 0
-10 -13 -14 0
10 14 27 0
-10 -14 -27 0
2 11 12 0
-2 -11 -12 0
11 13 15 0
-11 -13 -15 0
11 14 28 0
-11 -14 -28 0
3 12 0
-3 -12 0
12 13 16 0
-12 -13 -16 0
12 14 29 0
-12 -14 -29 0
4 12 13 0
-4 -12 -13 0
13 17 0
-13 -17 0
13 14 30 0
-13 -14 -30 0
5 12 14 0
-5 -12 -14 0
13 14 18 0
-13 -14 -18 0
14 31 0
-14 -31 0
6 12 15 0
-6 -12 -15 0
13 15 19 0
-13 -15 -19 0
14 15 32 0
-14 -15 -32 0
7 12 16 0
-7 -12 -16 0
13 16 20 0
-13 -16 -20 0
14 16 33 0
-14 -16 -33 0
8 12 17 0
-8 -12 -17 0
13 17 21 0
-13 -17 -21 0
9 12 18 0
-9 -12 -18 0
13 18 22 0
-13 -18 -22 0
10 12 19 0
-10 -12 -19 0
13 19 23 0
-13 -19 -23 0
11 12 20 0
-11 -12 -20 0
13 20 24 0
-13 -20 -24 0
12 21 0
-12 -21 0
13 21 25 0
-13 -21 -25 0
12 13 22 0
-12 -13 -22 0
13 22 26 0
-13 -22 -26 0
1 11 23 0
-1 -11 -23 0
12 14 23 0
-12 -14 -23 0
13 23 27 0
-13 -23 -27 0
2 11 24 0
-2 -11 -24 0
12 15 24 0
-12 -15 -24 0
13 24 28 0
-13 -24 -28 0
3 11 25 0
-3 -11 -25 0
12 16 25 0
-12 -16 -25 0
13 25 29 0
-13 -25 -29 0
4 11 26 0
-4 -11 -26 0
12 17 26 0
-12 -17 -26 0
13 26 30 0
-13 -26 -30 0
5 11 27 0
-5 -11 -27 0
12 18 27 0
-12 -18 -27 0
13 27 31 0
-13 -27 -31 0
6 11 28 0
-6 -11 -28 0
12 19 28 0
-12 -19 -28 0
13 28 32 0
-13 -28 -32 0
7 11 29 0
-7 -11 -29 0
12 20 29 0
-12 -20 -29 0
13 29 33 0
-13 -29 -33 0
8 11 30 0
-8 -11 -30 0
12 21 30 0
-12 -21 -30 0
9 11 31 0
-9 -11 -31 0
12 22 31 0
-12 -22 -31 0
10 11 32 0
-10 -11 -32 0
12 23 32 0
-12 -23 -32 0
11 33 0
-11 -33 0
12 24 33 0
-12 -24 -33 0
