certificates/rado_a13_c165_N33.drat
14 -32 11 0
-32 11 0
d 14 -32 11 0
31 -10 0
-33 0
11 0
-31 32 0
32 0
-10 0
31 0
-14 0
-9 0
16 0
13 0
27 0
26 0
-20 0
-12 0
-15 0
-17 0
0
